************************************************************************
file with basedata            : j9024_.bas
initial value random generator: 1868871440
************************************************************************
projects                      :  1
jobs (incl. supersource/sink ):  92
horizon                       :  510
RESOURCES
  - renewable                 :  4   R
  - nonrenewable              :  0   N
  - doubly constrained        :  0   D
************************************************************************
PROJECT INFORMATION:
pronr.  #jobs rel.date duedate tardcost  MPM-Time
    1     90      0       87       50       87
************************************************************************
PRECEDENCE RELATIONS:
jobnr.    #modes  #successors   successors
   1        1          3           2   3   4
   2        1          3           5  39  57
   3        1          3           7  13  24
   4        1          3           6   8  14
   5        1          2          15  72
   6        1          2          35  44
   7        1          3           9  10  12
   8        1          1          28
   9        1          3          22  31  44
  10        1          3          11  41  54
  11        1          1          19
  12        1          2          29  40
  13        1          3          17  37  70
  14        1          2          17  30
  15        1          3          16  20  32
  16        1          1          33
  17        1          3          18  19  73
  18        1          3          43  49  52
  19        1          1          23
  20        1          3          21  27  38
  21        1          2          22  34
  22        1          2          26  66
  23        1          1          72
  24        1          2          25  31
  25        1          1          47
  26        1          3          36  65  77
  27        1          3          31  45  81
  28        1          3          33  58  86
  29        1          2          36  54
  30        1          3          51  58  60
  31        1          3          74  75  78
  32        1          2          35  66
  33        1          3          36  53  55
  34        1          2          67  84
  35        1          2          42  79
  36        1          1          68
  37        1          2          46  61
  38        1          3          48  59  65
  39        1          2          67  83
  40        1          2          49  62
  41        1          1          63
  42        1          2          53  61
  43        1          3          62  75  76
  44        1          3          50  62  63
  45        1          1          56
  46        1          1          87
  47        1          3          56  57  80
  48        1          1          88
  49        1          1          82
  50        1          1          57
  51        1          3          59  66  69
  52        1          1          83
  53        1          1          77
  54        1          1          86
  55        1          2          71  76
  56        1          3          58  84  86
  57        1          1          72
  58        1          1          76
  59        1          1          70
  60        1          2          63  64
  61        1          1          81
  62        1          1          78
  63        1          2          65  68
  64        1          1          68
  65        1          3          74  78  82
  66        1          1          71
  67        1          2          74  90
  68        1          1          73
  69        1          2          70  88
  70        1          1          73
  71        1          1          79
  72        1          1          88
  73        1          2          79  90
  74        1          1          80
  75        1          1          80
  76        1          2          77  85
  77        1          1          90
  78        1          1          87
  79        1          2          81  82
  80        1          1          91
  81        1          2          83  84
  82        1          1          87
  83        1          2          85  89
  84        1          1          85
  85        1          1          91
  86        1          1          89
  87        1          1          91
  88        1          1          89
  89        1          1          92
  90        1          1          92
  91        1          1          92
  92        1          0        
************************************************************************
REQUESTS/DURATIONS:
jobnr. mode duration  R 1  R 2  R 3  R 4
------------------------------------------------------------------------
  1      1     0       0    0    0    0
  2      1    10       8   10    6    4
  3      1     4       0    0    7    2
  4      1     3      10    0    0    0
  5      1    10       8    0    0    0
  6      1     1       0   10    2   10
  7      1     4       0    3    5    0
  8      1     7       3    0    3    0
  9      1    10       0   10    0    4
 10      1     8       2    3    0    2
 11      1     4       0   10    9    8
 12      1     8       0    9    0    0
 13      1    10       0    7    1    0
 14      1    10       0    0    7    0
 15      1     1       0    0    0    8
 16      1     9       0    0   10    0
 17      1     2       0    0    5    0
 18      1     7       0    0    0    8
 19      1     3       0    6    8    2
 20      1     2       6   10    0    1
 21      1     8      10    5    0    0
 22      1     4       3    0    0    0
 23      1     2       7    0    0    0
 24      1     6       1    0    8    0
 25      1     6       2    8    0   10
 26      1     5       6    0    2    0
 27      1     9      10    3    0    0
 28      1     1       0    5    8    0
 29      1     9       4    0    6    8
 30      1     2       2    0    8    0
 31      1     6       0    8    0    9
 32      1    10       5    7    1    0
 33      1     4       7    0    5    4
 34      1     4       4    5    6    4
 35      1     7       0    3    0    0
 36      1     7       0    1    1    7
 37      1     8       0    0    8    4
 38      1     4       0    0    0    5
 39      1     1       0    3    0    8
 40      1     2       0    0    0    7
 41      1    10      10    0    0    0
 42      1     2       0    0    5    5
 43      1     5       0    0    6    4
 44      1     6       4    9    0    0
 45      1     1       9    0    3    0
 46      1     5       4    0    6    5
 47      1     6       0    1    4    3
 48      1     4       8    0    0    0
 49      1     3       0    0    0    9
 50      1     9       0    2    0    0
 51      1     6       4    2    5    5
 52      1     6       0   10    4    0
 53      1     9       2    0    0    4
 54      1     1       0    3   10    0
 55      1     5       5    0    0    4
 56      1     2       6    0   10    0
 57      1    10       5    0    0    8
 58      1     8       6    8    0    0
 59      1     2       6    0    8    7
 60      1     6       0    0    5    0
 61      1     7       0    0    0    2
 62      1     2       0    0    0    7
 63      1    10       9    0    0    8
 64      1     5       5    0    9    2
 65      1     7       0    2    5    8
 66      1     2       1    0    2    4
 67      1     4       0    0    0    6
 68      1     4      10    0    0    6
 69      1     3       0    1   10    0
 70      1     3       8    9    5    1
 71      1     4       0    0    0    9
 72      1     9       0    0    5    0
 73      1     3       0    7    2    3
 74      1     7       8    6    7    0
 75      1     9       0    2    9    0
 76      1     6       0    0    2    0
 77      1     8       0    8    0    0
 78      1     3       0    8    8    7
 79      1     9       0    0    0    6
 80      1     7       0    5    0    5
 81      1     5       7    0    0    3
 82      1     9       3   10    0    0
 83      1     7       2    0    2    9
 84      1     7       0    8    8    0
 85      1     5       0    5   10    0
 86      1     9       0    0    9    0
 87      1     8       2    0    9    0
 88      1     8       0    0    2    0
 89      1     7       0    6    0   10
 90      1     2       5    7    0   10
 91      1     7       5    0    0    3
 92      1     0       0    0    0    0
************************************************************************
RESOURCEAVAILABILITIES:
  R 1  R 2  R 3  R 4
   59   45   56   47
************************************************************************
